NAME: eil51.tsp
TYPE: TSP
COMMENT: Solution
DIMENSION: 51
TOUR_SECTION
1
22
2
29
21
34
30
39
10
33
45
15
44
37
17
18
14
25
13
41
19
42
40
4
47
12
46
51
27
48
6
43
24
23
7
26
8
31
28
3
20
35
36
16
50
9
49
5
38
11
32
-1
EOF